(set-info :smt-lib-version 2.6)
(set-logic QF_SLIA)
(set-info :source |
Generated by: Joel Day, Thorsten Ehlers, Mitja Kulczynski, Federico Mora, Florin Manea, Dirk Nowotka, Danny Poulsen, Zhengyang Lu
Application: Test WOORPJE
Target solver: WOORPJE
Publications: Day, J. D., Ehlers, T., Kulczynski, M., Manea, F., Nowotka, D., & Poulsen, D. B. (2019). On solving word equations using SAT. In RP 2019
Description: Enriches a system of 30 word equations by suitable linear constraints
|)
(set-info :license "https://creativecommons.org/licenses/by/4.0/")
(set-info :category "random")
(set-info :status unknown)

(declare-fun G () String)
(declare-fun A () String)
(declare-fun C () String)
(declare-fun D () String)
(assert (= (str.++  "fbf" C "eb" D "bfadcffbfebcc")  (str.++  "fbfadceeacf" D "c" D "ebaeb" G "bcc") ))
(assert (= (str.++  "cebcfffefedf" D "abbaae" D "afcedbfdfcaec" D "efadaa")  (str.++  "cebcfffefedfdabb" A "edafcedbfdfcaec" D "efad" A) ))
(assert (= (str.++  "bbfbfeeeaad" A "dfec" D "cd" A "eb" D "eddcbbcefcacaca")  (str.++  "bbfbfeeeaadaa" D "fecdc" D A "ebdeddcbbcefcacaca") ))
(assert (>=(* (str.len G) 7) 42))
(assert (<=(* (str.len C) 20) 700))
(assert (>=(* (str.len D) 12) 12))
(assert (<=(* (str.len D) 6) 54))
(assert (>=(* (str.len A) 16) 32))
(assert (<=(* (str.len A) 18) 594))
(check-sat)

(exit)
